
Welcome to IBM(R) ILOG(R) CPLEX(R) Interactive Optimizer 22.1.1.0
  with Simplex, Mixed Integer & Barrier Optimizers
5725-A06 5725-A29 5724-Y48 5724-Y49 5724-Y54 5724-Y55 5655-Y21
Copyright IBM Corp. 1988, 2022.  All Rights Reserved.

Type 'help' for a list of available commands.
Type 'help' followed by a command name for more
information on commands.

CPLEX> New value for default parallel thread count: 1
CPLEX> New value for time limit in seconds: 300
CPLEX> New value for mixed integer optimality gap tolerance: 0
CPLEX> Problem 'E:\codes\ExactEBRP\results\gf_tailored_bc_fair_diagnosis_round\model_exports\worst_leaf__moderate_seed3301__plain_fixed_interval_mip__g71241711861bede0__300s.lp' read.
Read time = 0.02 sec. (0.57 ticks)
CPLEX> Version identifier: 22.1.1.0 | 2022-11-27 | 9160aff4d
CPXPARAM_Threads                                 1
CPXPARAM_TimeLimit                               300
CPXPARAM_MIP_Tolerances_MIPGap                   0
Tried aggregator 2 times.
MIP Presolve eliminated 166 rows and 38 columns.
MIP Presolve modified 672 coefficients.
Aggregator did 62 substitutions.
Reduced MIP has 4831 rows, 2017 columns, and 22737 nonzeros.
Reduced MIP has 1456 binaries, 192 generals, 0 SOSs, and 0 indicators.
Presolve time = 0.00 sec. (23.70 ticks)
Probing fixed 0 vars, tightened 15 bounds.
Probing time = 0.03 sec. (50.63 ticks)
Tried aggregator 1 time.
Detecting symmetries...
MIP Presolve eliminated 12 rows and 12 columns.
MIP Presolve modified 24 coefficients.
Reduced MIP has 4819 rows, 2005 columns, and 22449 nonzeros.
Reduced MIP has 1450 binaries, 186 generals, 0 SOSs, and 0 indicators.
Presolve time = 0.02 sec. (17.99 ticks)
Probing time = 0.02 sec. (24.92 ticks)
Clique table members: 12106.
MIP emphasis: balance optimality and feasibility.
MIP search method: dynamic search.
Parallel mode: none, using 1 thread.
Root relaxation solution time = 0.08 sec. (196.68 ticks)

        Nodes                                         Cuts/
   Node  Left     Objective  IInf  Best Integer    Best Bound    ItCnt     Gap

      0     0        0.0413   193                      0.0413     1762         
      0     0        0.0417   229                   Cuts: 109     4093         
      0     0        0.0427   299                   Cuts: 244     4636         
      0     0        0.0427   267                   Cuts: 121     4762         
      0     0        0.0428   258                    Cuts: 81     4885         
      0     0        0.0428   263                   Cuts: 101     5119         
Detecting symmetries...
      0     0        0.0428   258                   Cuts: 106     6163         
      0     0        0.0428   164                    Cuts: 10     6262         
      0     0        0.0428   213                   Cuts: 105     7162         
Detecting symmetries...
      0     2        0.0428   157                      0.0429     7162         
Elapsed time = 1.31 sec. (3330.67 ticks, tree = 0.01 MB, solutions = 0)
      9    11        0.0488   161                      0.0429     8842         
     17    13    infeasible                            0.0439    10220         
     28    14        0.0445   210                      0.0445    11505         
     38    14    infeasible                            0.0448    13363         
     48    16        0.0474   174                      0.0451    14255         
     55     9    infeasible                            0.0475    17394         
     64     0    infeasible                                      18809         

Cover cuts applied:  3
Implied bound cuts applied:  56
Flow cuts applied:  9
Mixed integer rounding cuts applied:  91
Zero-half cuts applied:  14
Gomory fractional cuts applied:  4

Root node processing (before b&c):
  Real time             =    1.30 sec. (3266.38 ticks)
Sequential b&c:
  Real time             =    0.77 sec. (2227.76 ticks)
                          ------------
Total (root+branch&cut) =    2.06 sec. (5494.14 ticks)


MIP - Integer infeasible.
Current MIP best bound is infinite.
Solution time =    2.06 sec.  Iterations = 18809  Nodes = 65
Deterministic time = 5494.14 ticks  (2664.47 ticks/sec)

CPLEX> CPLEX Error  1217: No solution exists.
No file written.
CPLEX> 